1516282346913687202 -1 0
h 2 0
2386595974343147276 -3 0
167691536450767845 -4 0
451187016462734124 -5 0
350675515105316366 -6 0
2743708661537344249 -7 0
669242623291995083 -8 0
1451681107569907652 -9 0
1163630517651411554 -10 0
3414608843787885364 -11 0
2534121482347697161 -12 0
1018803009705733414 -13 0
578515438541924325 -14 0
h -2 0
